LAMMPS data file. CGCMM style. atom_style full generated by VMD/TopoTools v1.8 on Mon Feb 17 10:25:32 CET 2025
 62 atoms
 65 bonds
 120 angles
 178 dihedrals
 0 impropers
 10 atom types
 14 bond types
 25 angle types
 35 dihedral types
 0 improper types
 -15.519000 14.481000  xlo xhi
 -6.732000 23.268000  ylo yhi
 -15.000000 15.000000  zlo zhi

 Pair Coeffs

1 0.0619 3.4651 #CA
2 0.0619 3.4291 #CB
3 0.0619 3.4325 #CIN
4 0.0619 3.1977 #CIO
5 0.0619 3.4864 #CL
6 0.0619 3.5242 #CT
7 0.036 2.3139 #H
8 0.036 2.2171 #HA
9 0.1006 3.0735 #N
10 0.1001 2.965 #O


 Bond Coeffs

 1   469.0  1.40        # CA-CA
 2   469.0  1.404       # CA-CB
 3   400.0  1.490       # CA-CIO
 4   367.0  1.080       # CA-HA
 5   520.0  1.370       # CB-CB
 6   268.0  1.529       # CIN-CL
 7   340.0  1.09        # CIN-H
 8   337.0  1.449       # CIN-N
 9   490.0  1.335       # CIO-N
 10  570.0  1.229       # CIO-O
 11  268.0  1.529       # CL-CL
 12  268.0  1.529       # CL-CT
 13  340.0  1.09        # CL-H
 14  340.0  1.09        # CT-H

 Angle Coeffs

 1  63.0  120.0  # CA-CA-CA
 2  63.0  120.0 #  CA-CA-CB
 3  85.0  120.0 #  CA-CA-CIO
 4  35.0  120.0 #  CA-CA-HA
 5  85.0  134.9 #  CA-CB-CA
 6  85.0  117.3 #  CA-CB-CB
 7  70.0  115.5 #  CA-CIO-N
 8  80.0  120.4 #  CA-CIO-O
 9  85.0  120.0 #  CB-CA-CIO
 10 58.35 112.7 #  CIN-CL-CL
 11 37.5  110.7 #  CIN-CL-H
 12 50.0  121.9 #  CIN-N-CIO
 13 70.0  126.4 #  CIO-N-CIO
 14 37.5  110.7 #  CL-CIN-H
 15 80.0  109.7 #  CL-CIN-N
 16 58.35 112.7 #  CL-CL-CL
 17 58.35 112.7 #  CL-CL-CT
 18 37.5  110.7 #  CL-CL-H
 19 37.5  110.7 #  CL-CT-H
 20 37.5  110.7 #  CT-CL-H
 21 33.0  107.8 #  H-CIN-H
 22 35.0  109.5 #  H-CIN-N
 23 33.0  107.8 #  H-CL-H
 24 33.0  107.8 #  H-CT-H
 25 80.0  122.9 #  N-CIO-O

 Dihedral Coeffs

 1 0.0  100.0  0.0  0.0  # CA-CA-CA-CA
 2 0.0  100.0  0.0  0.0  # CA-CA-CA-CB
 3 0.0  100.0  0.0  0.0  # CA-CA-CA-CIO
 4 0.0  100.0  0.0  0.0  # CA-CA-CA-HA
 5 0.0  100.0  0.0  0.0  # CA-CA-CB-CA
 6 0.0  100.0  0.0  0.0  # CA-CA-CB-CB
 7 0.0  100.0  0.0  0.0  # CA-CA-CIO-N
 8 0.0  100.0  0.0  0.0  # CA-CA-CIO-O
 9 0.0  100.0  0.0  0.0  # CA-CB-CB-CA
 10 2.300  6.089  0.0  0.0  # CA-CIO-N-CIN
 11 0.0  100.0  0.0  0.0  # CA-CIO-N-CIO
 12 0.0  100.0  0.0  0.0  # CB-CA-CA-HA
 13 0.0  100.0  0.0  0.0  # CB-CA-CIO-N
 14 0.0  100.0  0.0  0.0  # CB-CA-CIO-O
 15 0.850  -0.200  0.200  0.0  # CIN-CL-CL-CL
 16 0.000  0.000  0.300  0.0  # CIN-CL-CL-H
 17 0.0  100.0  0.0  0.0  # CIO-CA-CA-HA
 18 0.0  100.0  0.0  0.0  # CIO-CA-CB-CA
 19 0.0  100.0  0.0  0.0  #  CIO-CA-CB-CB
 20 -0.682  0.130  0.338  0.0  # CL-CIN-N-CIO
 21 0.850  -0.200  0.200  0.0 # CL-CL-CL-CL
 22 0.850  -0.200  0.200  0.0 # CL-CL-CL-CT
 23 0.000  0.000  0.300  0.0  # CL-CL-CL-H
 24 0.000  0.000  0.300  0.0  # CL-CL-CT-H
 25 0.000  0.000  0.300  0.0  # CT-CL-CL-H
 26 0.000  0.000  0.300  0.0  # H-CIN-CL-CL
 27 0.000  0.000  0.300  0.0  # H-CIN-CL-H
 28 0.0  0.0  0.0  0.0  # H-CIN-N-CIO
 29 0.000  0.000  0.300  0.0  # H-CL-CL-H
 30 0.000  0.000  0.300  0.0  # H-CL-CT-H
 31 0.0  100.0  0.0  0.0  # HA-CA-CA-HA
 32 0.884  0.897  0.880  0.0  # N-CIN-CL-CL
 33 0.000  0.000  0.464  0.0  # N-CIN-CL-H
 34 0.000  6.089  0.000  0.0  # O-CIO-N-CIN
 35 0.0  100.0  0.0  0.0  # O-CIO-N-CIO

 Masses

 1 12.010700 # CA
 2 12.010700 # CB
 3 12.010700 # CIN
 4 12.010700 # CIO
 5 12.010700 # CL
 6 12.010700 # CT
 7 1.007940 # H
 8 1.007940 # HA
 9 14.006700 # N
 10 15.999400 # O

 Atoms # full

1 1 1      -0.067484          0.984000 10.195000 0.597000 # CA 
2 1 1      -0.067434          1.308000 9.153000 1.475000 # CA 
3 1 1      -0.079003          -0.005000 10.028000 -0.356000 # CA 
4 1 1      -0.069162          0.666000 7.943000 1.408000 # CA 
5 1 1      -0.072055          -1.703000 8.592000 -1.408000 # CA 
6 1 1      -0.077113          -1.032000 6.507000 0.356000 # CA 
7 1 1      -0.069688          -2.345000 7.383000 -1.475000 # CA 
8 1 1      -0.065502          -2.022000 6.341000 -0.597000 # CA 
9 1 2       0.027249          -0.686000 8.797000 -0.439000 # CB 
10 1 2      0.025119          -0.351000 7.738000 0.439000 # CB 
11 1 8      0.128276          -3.124000 7.253000 -2.217000 # HA 
12 1 8      0.129731          -2.539000 5.391000 -0.649000 # HA 
13 1 8      0.130092          1.502000 11.144000 0.649000 # HA 
14 1 8      0.128038          2.086000 9.283000 2.217000 # HA 
15 1 4      0.505756          -0.334000 11.122000 -1.283000 # CIO 
16 1 4      0.502398          -2.082000 9.708000 -2.303000 # CIO 
17 1 4      0.505744          1.045000 6.827000 2.303000 # CIO 
18 1 4      0.512423          -0.704000 5.414000 1.283000 # CIO 
19 1 10    -0.483048            0.260000 12.183000 -1.280000 # O 
20 1 10    -0.486526            -2.999000 9.606000 -3.102000 # O 
21 1 10    -0.486663            1.961000 6.929000 3.102000 # O 
22 1 10    -0.484395            -1.297000 4.352000 1.280000 # O 
23 1 9     -0.228541           -1.373000 10.900000 -2.193000 # N 
24 1 9     -0.244888           0.335000 5.635000 2.193000 # N 
25 1 3     -0.029162           -1.710000 12.005000 -3.120000 # CIN 
26 1 3     -0.018781           0.672000 4.530000 3.120000 # CIN 
27 1 5     -0.160662           -0.951000 11.941000 -4.410000 # CL 
28 1 5     -0.132857           -1.203000 13.127000 -5.319000 # CL 
29 1 5     -0.154075           -0.698000 14.388000 -4.827000 # CL 
30 1 5     -0.079163           -0.969000 15.574000 -6.119000 # CL 
31 1 5     -0.162510           -0.086000 4.594000 4.410000 # CL 
32 1 5     -0.129408           0.165000 3.409000 5.319000 # CL 
33 1 5     -0.155603           -0.339000 2.147000 4.827000 # CL 
34 1 5     -0.077280           -0.068000 0.961000 6.119000 # CL 
35 1 6     -0.252701           -1.019000 16.364000 -5.535000 # CT 
36 1 6     -0.254598           -0.019000 0.172000 5.535000 # CT 
37 1 7      0.091254           -1.496000 12.925000 -2.579000 # H 
38 1 7      0.091836           -2.782000 11.941000 -3.300000 # H 
39 1 7      0.080208           0.120000 11.886000 -4.186000 # H 
40 1 7      0.081812           -1.217000 11.011000 -4.923000 # H 
41 1 7      0.072845           -2.281000 13.200000 -5.512000 # H 
42 1 7      0.079423           -0.744000 12.903000 -6.288000 # H 
43 1 7      0.081658           -1.231000 14.795000 -3.972000 # H 
44 1 7      0.082481           0.378000 14.403000 -4.641000 # H 
45 1 7      0.079690           -1.838000 15.193000 -6.684000 # H 
46 1 7      0.077487           -0.118000 15.396000 -6.802000 # H 
47 1 7      0.074879           -1.862000 16.476999 -4.816000 # H 
48 1 7      0.024751           -1.141000 17.384001 -6.050000 # H 
49 1 7      0.081064           -0.158000 16.639000 -4.884000 # H 
50 1 7      0.087584           0.459000 3.611000 2.579000 # H 
51 1 7      0.090871           1.745000 4.594000 3.300000 # H 
52 1 7      0.082181           0.179000 5.524000 4.923000 # H 
53 1 7      0.080492           -1.157000 4.649000 4.186000 # H 
54 1 7      0.071830           1.243000 3.336000 5.512000 # H 
55 1 7      0.078204           -0.293000 3.633000 6.288000 # H 
56 1 7      0.081595           0.194000 1.741000 3.972000 # H 
57 1 7      0.083444           -1.415000 2.133000 4.641000 # H 
58 1 7      0.079493           0.800000 1.342000 6.684000 # H 
59 1 7      0.077234           -0.919000 1.140000 6.802000 # H 
60 1 7      0.074572           0.824000 0.058000 4.816000 # H 
61 1 7      0.081487           -0.879000 -0.104000 4.884000 # H 
62 1 7      0.025101           0.104000 -0.848000 6.050000 # H 

 Bonds

1 4 1 13
2 1 1 2
3 1 1 3
4 4 2 14
5 1 2 4
6 2 3 9
7 3 3 15
8 2 4 10
9 3 4 17
10 1 5 7
11 3 5 16
12 2 5 9
13 3 6 18
14 2 6 10
15 1 6 8
16 4 7 11
17 1 7 8
18 4 8 12
19 5 9 10
20 10 15 19
21 9 15 23
22 10 16 20
23 9 16 23
24 10 17 21
25 9 17 24
26 9 18 24
27 10 18 22
28 8 23 25
29 8 24 26
30 7 25 38
31 6 25 27
32 7 25 37
33 7 26 50
34 7 26 51
35 6 26 31
36 11 27 28
37 13 27 40
38 13 27 39
39 13 28 41
40 13 28 42
41 11 28 29
42 11 29 30
43 13 29 44
44 13 29 43
45 12 30 35
46 13 30 46
47 13 30 45
48 11 31 32
49 13 31 52
50 13 31 53
51 13 32 55
52 13 32 54
53 11 32 33
54 13 33 56
55 11 33 34
56 13 33 57
57 12 34 36
58 13 34 59
59 13 34 58
60 14 35 49
61 14 35 47
62 14 35 48
63 14 36 60
64 14 36 61
65 14 36 62

 Angles

1 4 2 1 13
2 4 3 1 13
3 1 2 1 3
4 4 1 2 14
5 1 1 2 4
6 4 4 2 14
7 2 1 3 9
8 3 1 3 15
9 9 9 3 15
10 2 2 4 10
11 3 2 4 17
12 9 10 4 17
13 3 7 5 16
14 2 7 5 9
15 9 9 5 16
16 9 10 6 18
17 3 8 6 18
18 2 8 6 10
19 4 5 7 11
20 1 5 7 8
21 4 8 7 11
22 1 6 8 7
23 4 6 8 12
24 4 7 8 12
25 5 3 9 5
26 6 3 9 10
27 6 5 9 10
28 5 4 10 6
29 6 4 10 9
30 6 6 10 9
31 8 3 15 19
32 7 3 15 23
33 25 19 15 23
34 8 5 16 20
35 7 5 16 23
36 25 20 16 23
37 8 4 17 21
38 7 4 17 24
39 25 21 17 24
40 7 6 18 24
41 8 6 18 22
42 25 22 18 24
43 13 15 23 16
44 12 15 23 25
45 12 16 23 25
46 13 17 24 18
47 12 17 24 26
48 12 18 24 26
49 22 23 25 38
50 15 23 25 27
51 22 23 25 37
52 14 27 25 38
53 21 37 25 38
54 14 27 25 37
55 22 24 26 50
56 22 24 26 51
57 15 24 26 31
58 21 50 26 51
59 14 31 26 50
60 14 31 26 51
61 10 25 27 28
62 11 25 27 40
63 11 25 27 39
64 18 28 27 40
65 18 28 27 39
66 23 39 27 40
67 18 27 28 41
68 18 27 28 42
69 16 27 28 29
70 23 41 28 42
71 18 29 28 41
72 18 29 28 42
73 16 28 29 30
74 18 28 29 44
75 18 28 29 43
76 18 30 29 44
77 18 30 29 43
78 23 43 29 44
79 17 29 30 35
80 18 29 30 46
81 18 29 30 45
82 20 35 30 46
83 20 35 30 45
84 23 45 30 46
85 10 26 31 32
86 11 26 31 52
87 11 26 31 53
88 18 32 31 52
89 18 32 31 53
90 23 52 31 53
91 18 31 32 55
92 18 31 32 54
93 16 31 32 33
94 23 54 32 55
95 18 33 32 55
96 18 33 32 54
97 18 32 33 56
98 16 32 33 34
99 18 32 33 57
100 18 34 33 56
101 23 56 33 57
102 18 34 33 57
103 17 33 34 36
104 18 33 34 59
105 18 33 34 58
106 20 36 34 59
107 20 36 34 58
108 23 58 34 59
109 19 30 35 49
110 19 30 35 47
111 19 30 35 48
112 24 47 35 49
113 24 48 35 49
114 24 47 35 48
115 19 34 36 60
116 19 34 36 61
117 19 34 36 62
118 24 60 36 61
119 24 60 36 62
120 24 61 36 62

 Dihedrals

1 31 13 1 2 14
2 4 13 1 2 4
3 4 3 1 2 14
4 1 3 1 2 4
5 12 13 1 3 9
6 17 13 1 3 15
7 2 2 1 3 9
8 3 2 1 3 15
9 2 1 2 4 10
10 3 1 2 4 17
11 12 14 2 4 10
12 17 14 2 4 17
13 5 1 3 9 5
14 6 1 3 9 10
15 18 15 3 9 5
16 19 15 3 9 10
17 8 1 3 15 19
18 7 1 3 15 23
19 14 9 3 15 19
20 13 9 3 15 23
21 5 2 4 10 6
22 6 2 4 10 9
23 18 17 4 10 6
24 19 17 4 10 9
25 8 2 4 17 21
26 7 2 4 17 24
27 14 10 4 17 21
28 13 10 4 17 24
29 17 16 5 7 11
30 3 16 5 7 8
31 12 9 5 7 11
32 2 9 5 7 8
33 8 7 5 16 20
34 7 7 5 16 23
35 14 9 5 16 20
36 13 9 5 16 23
37 5 7 5 9 3
38 6 7 5 9 10
39 18 16 5 9 3
40 19 16 5 9 10
41 13 10 6 18 24
42 14 10 6 18 22
43 7 8 6 18 24
44 8 8 6 18 22
45 18 18 6 10 4
46 19 18 6 10 9
47 5 8 6 10 4
48 6 8 6 10 9
49 3 18 6 8 7
50 17 18 6 8 12
51 2 10 6 8 7
52 12 10 6 8 12
53 1 5 7 8 6
54 4 5 7 8 12
55 4 11 7 8 6
56 31 11 7 8 12
57 9 3 9 10 4
58 9 3 9 10 6
59 9 5 9 10 4
60 9 5 9 10 6
61 11 3 15 23 16
62 10 3 15 23 25
63 35 19 15 23 16
64 34 19 15 23 25
65 11 5 16 23 15
66 10 5 16 23 25
67 35 20 16 23 15
68 34 20 16 23 25
69 11 4 17 24 18
70 10 4 17 24 26
71 35 21 17 24 18
72 34 21 17 24 26
73 11 6 18 24 17
74 10 6 18 24 26
75 35 22 18 24 17
76 34 22 18 24 26
77 28 15 23 25 38
78 20 15 23 25 27
79 28 15 23 25 37
80 28 16 23 25 38
81 20 16 23 25 27
82 28 16 23 25 37
83 28 17 24 26 50
84 28 17 24 26 51
85 20 17 24 26 31
86 28 18 24 26 50
87 28 18 24 26 51
88 20 18 24 26 31
89 32 23 25 27 28
90 33 23 25 27 40
91 33 23 25 27 39
92 26 38 25 27 28
93 27 38 25 27 40
94 27 38 25 27 39
95 26 37 25 27 28
96 27 37 25 27 40
97 27 37 25 27 39
98 32 24 26 31 32
99 33 24 26 31 52
100 33 24 26 31 53
101 26 50 26 31 32
102 27 50 26 31 52
103 27 50 26 31 53
104 26 51 26 31 32
105 27 51 26 31 52
106 27 51 26 31 53
107 16 25 27 28 41
108 16 25 27 28 42
109 15 25 27 28 29
110 29 40 27 28 41
111 29 40 27 28 42
112 23 40 27 28 29
113 29 39 27 28 41
114 29 39 27 28 42
115 23 39 27 28 29
116 21 27 28 29 30
117 23 27 28 29 44
118 23 27 28 29 43
119 23 41 28 29 30
120 29 41 28 29 44
121 29 41 28 29 43
122 23 42 28 29 30
123 29 42 28 29 44
124 29 42 28 29 43
125 22 28 29 30 35
126 23 28 29 30 46
127 23 28 29 30 45
128 25 44 29 30 35
129 29 44 29 30 46
130 29 44 29 30 45
131 25 43 29 30 35
132 29 43 29 30 46
133 29 43 29 30 45
134 24 29 30 35 49
135 24 29 30 35 47
136 24 29 30 35 48
137 30 46 30 35 49
138 30 46 30 35 47
139 30 46 30 35 48
140 30 45 30 35 49
141 30 45 30 35 47
142 30 45 30 35 48
143 16 26 31 32 55
144 16 26 31 32 54
145 15 26 31 32 33
146 29 52 31 32 55
147 29 52 31 32 54
148 23 52 31 32 33
149 29 53 31 32 55
150 29 53 31 32 54
151 23 53 31 32 33
152 23 31 32 33 56
153 21 31 32 33 34
154 23 31 32 33 57
155 29 55 32 33 56
156 23 55 32 33 34
157 29 55 32 33 57
158 29 54 32 33 56
159 23 54 32 33 34
160 29 54 32 33 57
161 22 32 33 34 36
162 23 32 33 34 59
163 23 32 33 34 58
164 25 56 33 34 36
165 29 56 33 34 59
166 29 56 33 34 58
167 25 57 33 34 36
168 29 57 33 34 59
169 29 57 33 34 58
170 24 33 34 36 60
171 24 33 34 36 61
172 24 33 34 36 62
173 30 59 34 36 60
174 30 59 34 36 61
175 30 59 34 36 62
176 30 58 34 36 60
177 30 58 34 36 61
178 30 58 34 36 62

