LAMMPS data file. CGCMM style. atom_style full generated by VMD/TopoTools v1.8 on Tue Mar 25 10:55:01 CET 2025
 62 atoms
 65 bonds
 120 angles
 178 dihedrals
 0 impropers
 10 atom types
 14 bond types
 25 angle types
 35 dihedral types
 0 improper types
 -15.000000 15.000000  xlo xhi
 -15.000000 15.000000  ylo yhi
 -15.000000 15.000000  zlo zhi

 Pair Coeffs

 1    0.0619 3.4665             # CA
 2    0.0619 3.415              # CB
 3    0.0619 3.4006             # CIN
 4    0.0619 3.1971             # CIO
 5    0.0619 3.4764             # CL
 6    0.0619 3.589              # CT
 7    0.036 2.288              # H
 8    0.036 2.2148              # HA
 9    0.1006 3.0618             # N
 10   0.1001 2.9613             #  O



 Bond Coeffs

 1  469.0  1.40       #CA-CA
 2  469.0  1.404      #CA-CB
 3  400.0  1.490      #CA-CIO
 4  367.0  1.080      #CA-HA
 5  520.0  1.370      #CB-CB
 6  268.0  1.529      #CIN-CL
 7  340.0  1.09       #CIN-H
 8  337.0  1.449      #CIN-N
 9  490.0  1.335      #CIO-N
 10 570.0  1.229      #CIO-O
 11 268.0  1.529      #CL-CL
 12 268.0  1.529      #CL-CT
 13 340.0  1.09       #CL-H
 14 340.0  1.09       #CT-H

Angle Coeffs

 1  63.0  120.0   #  CA-CA-CA
 2  63.0  120.0   #  CA-CA-CB
 3  85.0  120.0   #  CA-CA-CIO
 4  35.0  120.0   #  CA-CA-HA
 5  85.0  134.9   #  CA-CB-CA
 6  85.0  117.3   #  CA-CB-CB
 7  70.0  115.5   #  CA-CIO-N
 8  80.0  120.4   #  CA-CIO-O
 9  85.0  120.0   #  CB-CA-CIO
 10 58.35 112.7   #  CIN-CL-CL
 11 37.5  110.7   #  CIN-CL-H
 12 50.0  121.9   #  CIN-N-CIO
 13 70.0  126.4   #  CIO-N-CIO
 14 37.5  110.7   #  CL-CIN-H
 15 80.0  109.7   #  CL-CIN-N
 16 58.35 112.7   #  CL-CL-CL
 17 58.35 112.7   #  CL-CL-CT
 18 37.5  110.7   #  CL-CL-H
 19 37.5  110.7   #  CL-CT-H
 20 37.5  110.7   #  CT-CL-H
 21 33.0  107.8   #  H-CIN-H
 22 35.0  109.5   #  H-CIN-N
 23 33.0  107.8   #  H-CL-H
 24 33.0  107.8   #  H-CT-H
 25 80.0  122.9   #  N-CIO-O

Dihedral Coeffs
 
1 0.0  100.0  0.0  0.0  #CA-CA-CA-CA
 2 0.0  100.0  0.0  0.0  #CA-CA-CA-CB
 3 0.0  100.0  0.0  0.0  #CA-CA-CA-CIO
 4 0.0  100.0  0.0  0.0  #CA-CA-CA-HA
 5 0.0  100.0  0.0  0.0  #CA-CA-CB-CA
 6 0.0  100.0  0.0  0.0  #CA-CA-CB-CB
 7 0.0  100.0  0.0  0.0  #CA-CA-CIO-N
 8 0.0  100.0  0.0  0.0  #CA-CA-CIO-O
 9 0.0  100.0  0.0  0.0  #CA-CB-CB-CA
 10 2.300  6.089  0.0  0.0 # CA-CIO-N-CIN
 11 0.0  100.0  0.0  0.0 # CA-CIO-N-CIO
 12 0.0  100.0  0.0  0.0 # CB-CA-CA-HA
 13 0.0  100.0  0.0  0.0 # CB-CA-CIO-N
 14 0.0  100.0  0.0  0.0  # CB-CA-CIO-O
 15 0.850  -0.200  0.200  0.0 # CIN-CL-CL-CL
 16 0.000  0.000  0.300  0.0 # CIN-CL-CL-H
 17 0.0  100.0  0.0  0.0 # CIO-CA-CA-HA
 18 0.0  100.0  0.0  0.0 # CIO-CA-CB-CA
 19 0.0  100.0  0.0  0.0 # CIO-CA-CB-CB
 20 -0.682  0.130  0.338  0.0 # CL-CIN-N-CIO
 21 0.850  -0.200  0.200  0.0 # CL-CL-CL-CL
 22 0.850  -0.200  0.200  0.0 # CL-CL-CL-CT
 23 0.000  0.000  0.300  0.0 # CL-CL-CL-H
 24 0.000  0.000  0.300  0.0 # CL-CL-CT-H
 25 0.000  0.000  0.300  0.0 # CT-CL-CL-H
 26 0.000  0.000  0.300  0.0 # H-CIN-CL-CL
 27 0.000  0.000  0.300  0.0 # H-CIN-CL-H
 28 0.0  0.0  0.0  0.0 # H-CIN-N-CIO
 29 0.000  0.000  0.300  0.0 # H-CL-CL-H
 30 0.000  0.000  0.300  0.0 # H-CL-CT-H
 31 0.0  100.0  0.0  0.0 # HA-CA-CA-HA
 32 0.884  0.897  0.880 0.0 # N-CIN-CL-CL
 33 0.000  0.000  0.464  0.0 # N-CIN-CL-H
 34 0.000  6.089  0.000  0.0 # O-CIO-N-CIN
 35 0.0  100.0  0.0  0.0 # O-CIO-N-CIO


 Masses

 1 12.010700 # CA
 2 12.010700 # CB
 3 12.010700 # CIN
 4 12.010700 # CIO
 5 12.010700 # CL
 6 12.010700 # CT
 7 1.007940 # H
 8 1.007940 # HA
 9 14.006700 # N
 10 15.999400 # O

 Atoms # full

1 1 1      -0.069006       1.067000 -1.403000 -1.795000 # CA 
2 1 1      -0.072945       1.677000 -1.770000 -0.589000 # CA 
3 1 1      -0.080615       0.083000 -0.430000 -1.816000 # CA 
4 1 1      -0.071710       1.308000 -1.124000 0.593000 # CA 
5 1 1      -0.071714       -1.308000 1.124000 -0.593000 # CA 
6 1 1      -0.080609       -0.083000 0.430000 1.816000 # CA 
7 1 1      -0.072943       -1.677000 1.770000 0.589000 # CA 
8 1 1      -0.069008       -1.067000 1.403000 1.795000 # CA 
9 1 2       0.034062       -0.303000 0.190000 -0.611000 # CB 
10 1 2      0.034046        0.303000 -0.190000 0.611000 # CB 
11 1 8      0.129817        1.344000 -1.879000 -2.727000 # HA 
12 1 8      0.133644        2.439000 -2.537000 -0.549000 # HA 
13 1 8      0.133645        -2.439000 2.537000 0.549000 # HA 
14 1 8      0.129817        -1.344000 1.879000 2.727000 # HA 
15 1 4      0.499357        -0.562000 -0.055000 -3.083000 # CIO 
16 1 4      0.501345        -1.918000 1.585000 -1.859000 # CIO 
17 1 4      0.501345        1.918000 -1.585000 1.859000 # CIO 
18 1 4      0.499356        0.562000 0.055000 3.083000 # CIO 
19 1 10    -0.475438        -0.294000 -0.595000 -4.139000 # O 
20 1 10    -0.490875        -2.733000 2.495000 -1.885000 # O 
21 1 10    -0.490874        2.733000 -2.495000 1.885000 # O 
22 1 10    -0.475438        0.294000 0.595000 4.139000 # O 
23 1 9     -0.231388        -1.518000 0.966000 -3.038000 # N 
24 1 9     -0.231388        1.518000 -0.966000 3.038000 # N 
25 1 3     -0.009766        -2.160000 1.388000 -4.304000 # CIN 
26 1 3     -0.009767        2.160000 -1.388000 4.304000 # CIN 
27 1 5     -0.158834        -1.161000 1.650000 -5.414000 # CL 
28 1 5     -0.135113        -1.208000 3.102000 -5.845000 # CL 
29 1 5     -0.134260        -1.620000 3.284000 -7.291000 # CL 
30 1 5     -0.078319        -1.913000 4.731000 -7.643000 # CL 
31 1 5     -0.158833        1.161000 -1.650000 5.414000 # CL 
32 1 5     -0.135111        1.208000 -3.102000 5.845000 # CL 
33 1 5     -0.134259        1.620000 -3.284000 7.291000 # CL 
34 1 5     -0.078319        1.913000 -4.731000 7.643000 # CL 
35 1 6     -0.350048        -0.856000 5.361000 -8.525000 # CT 
36 1 6     -0.350043        0.856000 -5.361000 8.525000 # CT 
37 1 7      0.077163        -2.856000 0.591000 -4.580000 # H 
38 1 7      0.098196        -2.743000 2.266000 -4.055000 # H 
39 1 7      0.093822        -0.158000 1.394000 -5.093000 # H 
40 1 7      0.087781        -1.370000 0.991000 -6.258000 # H 
41 1 7      0.067950        -1.908000 3.662000 -5.220000 # H 
42 1 7      0.067696        -0.237000 3.586000 -5.694000 # H 
43 1 7      0.071364        -0.847000 2.876000 -7.951000 # H 
44 1 7      0.062609        -2.511000 2.671000 -7.468000 # H 
45 1 7      0.064115        -2.020000 5.318000 -6.726000 # H 
46 1 7      0.062243        -2.880000 4.804000 -8.150000 # H 
47 1 7      0.101780        -0.778000 4.833000 -9.480000 # H 
48 1 7      0.104103        -1.076000 6.409000 -8.741000 # H 
49 1 7      0.101277        0.129000 5.321000 -8.049000 # H 
50 1 7      0.077164        2.856000 -0.591000 4.580000 # H 
51 1 7      0.098196        2.743000 -2.266000 4.055000 # H 
52 1 7      0.093822        0.158000 -1.394000 5.093000 # H 
53 1 7      0.087780        1.370000 -0.991000 6.258000 # H 
54 1 7      0.067950        1.908000 -3.662000 5.220000 # H 
55 1 7      0.067695        0.237000 -3.586000 5.694000 # H 
56 1 7      0.062609        2.511000 -2.671000 7.468000 # H 
57 1 7      0.071364        0.847000 -2.876000 7.951000 # H 
58 1 7      0.064115        2.020000 -5.318000 6.726000 # H 
59 1 7      0.062243        2.880000 -4.804000 8.150000 # H 
60 1 7      0.104102        1.076000 -6.409000 8.741000 # H 
61 1 7      0.101776        0.778000 -4.833000 9.480000 # H 
62 1 7      0.101277        -0.129000 -5.321000 8.049000 # H 

 Bonds

1 1 1 3
2 4 1 11
3 1 1 2
4 1 2 4
5 4 2 12
6 3 3 15
7 2 3 9
8 2 4 10
9 3 4 17
10 2 5 9
11 1 5 7
12 3 5 16
13 2 6 10
14 3 6 18
15 1 6 8
16 4 7 13
17 1 7 8
18 4 8 14
19 5 9 10
20 10 15 19
21 9 15 23
22 9 16 23
23 10 16 20
24 9 17 24
25 10 17 21
26 10 18 22
27 9 18 24
28 8 23 25
29 8 24 26
30 6 25 27
31 7 25 37
32 7 25 38
33 7 26 50
34 7 26 51
35 6 26 31
36 13 27 40
37 11 27 28
38 13 27 39
39 11 28 29
40 13 28 42
41 13 28 41
42 11 29 30
43 13 29 43
44 13 29 44
45 12 30 35
46 13 30 46
47 13 30 45
48 13 31 52
49 13 31 53
50 11 31 32
51 13 32 54
52 11 32 33
53 13 32 55
54 13 33 56
55 13 33 57
56 11 33 34
57 13 34 58
58 13 34 59
59 12 34 36
60 14 35 47
61 14 35 49
62 14 35 48
63 14 36 60
64 14 36 62
65 14 36 61

 Angles

1 4 3 1 11
2 1 2 1 3
3 4 2 1 11
4 1 1 2 4
5 4 1 2 12
6 4 4 2 12
7 3 1 3 15
8 2 1 3 9
9 9 9 3 15
10 2 2 4 10
11 3 2 4 17
12 9 10 4 17
13 2 7 5 9
14 9 9 5 16
15 3 7 5 16
16 9 10 6 18
17 2 8 6 10
18 3 8 6 18
19 4 5 7 13
20 1 5 7 8
21 4 8 7 13
22 1 6 8 7
23 4 6 8 14
24 4 7 8 14
25 5 3 9 5
26 6 3 9 10
27 6 5 9 10
28 5 4 10 6
29 6 4 10 9
30 6 6 10 9
31 8 3 15 19
32 7 3 15 23
33 25 19 15 23
34 7 5 16 23
35 8 5 16 20
36 25 20 16 23
37 7 4 17 24
38 8 4 17 21
39 25 21 17 24
40 8 6 18 22
41 7 6 18 24
42 25 22 18 24
43 13 15 23 16
44 12 15 23 25
45 12 16 23 25
46 13 17 24 18
47 12 17 24 26
48 12 18 24 26
49 15 23 25 27
50 22 23 25 37
51 22 23 25 38
52 14 27 25 37
53 14 27 25 38
54 21 37 25 38
55 22 24 26 50
56 22 24 26 51
57 15 24 26 31
58 21 50 26 51
59 14 31 26 50
60 14 31 26 51
61 11 25 27 40
62 10 25 27 28
63 11 25 27 39
64 18 28 27 40
65 23 39 27 40
66 18 28 27 39
67 16 27 28 29
68 18 27 28 42
69 18 27 28 41
70 18 29 28 42
71 18 29 28 41
72 23 41 28 42
73 16 28 29 30
74 18 28 29 43
75 18 28 29 44
76 18 30 29 43
77 18 30 29 44
78 23 43 29 44
79 17 29 30 35
80 18 29 30 46
81 18 29 30 45
82 20 35 30 46
83 20 35 30 45
84 23 45 30 46
85 11 26 31 52
86 11 26 31 53
87 10 26 31 32
88 23 52 31 53
89 18 32 31 52
90 18 32 31 53
91 18 31 32 54
92 16 31 32 33
93 18 31 32 55
94 18 33 32 54
95 23 54 32 55
96 18 33 32 55
97 18 32 33 56
98 18 32 33 57
99 16 32 33 34
100 23 56 33 57
101 18 34 33 56
102 18 34 33 57
103 18 33 34 58
104 18 33 34 59
105 17 33 34 36
106 23 58 34 59
107 20 36 34 58
108 20 36 34 59
109 19 30 35 47
110 19 30 35 49
111 19 30 35 48
112 24 47 35 49
113 24 47 35 48
114 24 48 35 49
115 19 34 36 60
116 19 34 36 62
117 19 34 36 61
118 24 60 36 62
119 24 60 36 61
120 24 61 36 62

 Dihedrals

1 17 11 1 3 15
2 12 11 1 3 9
3 3 2 1 3 15
4 2 2 1 3 9
5 1 3 1 2 4
6 4 3 1 2 12
7 4 11 1 2 4
8 31 11 1 2 12
9 2 1 2 4 10
10 3 1 2 4 17
11 12 12 2 4 10
12 17 12 2 4 17
13 8 1 3 15 19
14 7 1 3 15 23
15 14 9 3 15 19
16 13 9 3 15 23
17 5 1 3 9 5
18 6 1 3 9 10
19 18 15 3 9 5
20 19 15 3 9 10
21 5 2 4 10 6
22 6 2 4 10 9
23 18 17 4 10 6
24 19 17 4 10 9
25 7 2 4 17 24
26 8 2 4 17 21
27 13 10 4 17 24
28 14 10 4 17 21
29 5 7 5 9 3
30 6 7 5 9 10
31 18 16 5 9 3
32 19 16 5 9 10
33 12 9 5 7 13
34 2 9 5 7 8
35 17 16 5 7 13
36 3 16 5 7 8
37 13 9 5 16 23
38 14 9 5 16 20
39 7 7 5 16 23
40 8 7 5 16 20
41 18 18 6 10 4
42 19 18 6 10 9
43 5 8 6 10 4
44 6 8 6 10 9
45 14 10 6 18 22
46 13 10 6 18 24
47 8 8 6 18 22
48 7 8 6 18 24
49 2 10 6 8 7
50 12 10 6 8 14
51 3 18 6 8 7
52 17 18 6 8 14
53 1 5 7 8 6
54 4 5 7 8 14
55 4 13 7 8 6
56 31 13 7 8 14
57 9 3 9 10 4
58 9 3 9 10 6
59 9 5 9 10 4
60 9 5 9 10 6
61 11 3 15 23 16
62 10 3 15 23 25
63 35 19 15 23 16
64 34 19 15 23 25
65 11 5 16 23 15
66 10 5 16 23 25
67 35 20 16 23 15
68 34 20 16 23 25
69 11 4 17 24 18
70 10 4 17 24 26
71 35 21 17 24 18
72 34 21 17 24 26
73 11 6 18 24 17
74 10 6 18 24 26
75 35 22 18 24 17
76 34 22 18 24 26
77 20 15 23 25 27
78 28 15 23 25 37
79 28 15 23 25 38
80 20 16 23 25 27
81 28 16 23 25 37
82 28 16 23 25 38
83 28 17 24 26 50
84 28 17 24 26 51
85 20 17 24 26 31
86 28 18 24 26 50
87 28 18 24 26 51
88 20 18 24 26 31
89 33 23 25 27 40
90 32 23 25 27 28
91 33 23 25 27 39
92 27 37 25 27 40
93 26 37 25 27 28
94 27 37 25 27 39
95 27 38 25 27 40
96 26 38 25 27 28
97 27 38 25 27 39
98 33 24 26 31 52
99 33 24 26 31 53
100 32 24 26 31 32
101 27 50 26 31 52
102 27 50 26 31 53
103 26 50 26 31 32
104 27 51 26 31 52
105 27 51 26 31 53
106 26 51 26 31 32
107 15 25 27 28 29
108 16 25 27 28 42
109 16 25 27 28 41
110 23 40 27 28 29
111 29 40 27 28 42
112 29 40 27 28 41
113 23 39 27 28 29
114 29 39 27 28 42
115 29 39 27 28 41
116 21 27 28 29 30
117 23 27 28 29 43
118 23 27 28 29 44
119 23 42 28 29 30
120 29 42 28 29 43
121 29 42 28 29 44
122 23 41 28 29 30
123 29 41 28 29 43
124 29 41 28 29 44
125 22 28 29 30 35
126 23 28 29 30 46
127 23 28 29 30 45
128 25 43 29 30 35
129 29 43 29 30 46
130 29 43 29 30 45
131 25 44 29 30 35
132 29 44 29 30 46
133 29 44 29 30 45
134 24 29 30 35 47
135 24 29 30 35 49
136 24 29 30 35 48
137 30 46 30 35 47
138 30 46 30 35 49
139 30 46 30 35 48
140 30 45 30 35 47
141 30 45 30 35 49
142 30 45 30 35 48
143 16 26 31 32 54
144 15 26 31 32 33
145 16 26 31 32 55
146 29 52 31 32 54
147 23 52 31 32 33
148 29 52 31 32 55
149 29 53 31 32 54
150 23 53 31 32 33
151 29 53 31 32 55
152 23 31 32 33 56
153 23 31 32 33 57
154 21 31 32 33 34
155 29 54 32 33 56
156 29 54 32 33 57
157 23 54 32 33 34
158 29 55 32 33 56
159 29 55 32 33 57
160 23 55 32 33 34
161 23 32 33 34 58
162 23 32 33 34 59
163 22 32 33 34 36
164 29 56 33 34 58
165 29 56 33 34 59
166 25 56 33 34 36
167 29 57 33 34 58
168 29 57 33 34 59
169 25 57 33 34 36
170 24 33 34 36 60
171 24 33 34 36 62
172 24 33 34 36 61
173 30 58 34 36 60
174 30 58 34 36 62
175 30 58 34 36 61
176 30 59 34 36 60
177 30 59 34 36 62
178 30 59 34 36 61

